nN = 10;
nR = 50;
nH = 1;

a = [[10, 25, 22, 21, 24, 20, 17, 21, 13, 23, 16, 20, 16, 16, 17, 20, 19, 24, 21, 16, 13, 20, 15, 10, 11, 17, 18, 24, 11, 20, 17, 22, 11, 15, 22, 22, 19, 15, 15, 24, 11, 20, 16, 17, 20, 13, 24, 19, 20, 24], [10, 17, 16, 21, 16, 24, 13, 18, 14, 12, 18, 18, 15, 24, 24, 15, 12, 12, 11, 11, 13, 14, 14, 15, 12, 13, 10, 11, 19, 22, 13, 21, 24, 21, 15, 24, 16, 25, 23, 13, 21, 12, 13, 16, 18, 20, 23, 18, 19, 18], [23, 25, 12, 24, 16, 24, 16, 14, 11, 23, 14, 15, 13, 23, 17, 12, 13, 18, 16, 16, 10, 15, 11, 21, 13, 14, 12, 18, 24, 25, 21, 22, 18, 12, 15, 14, 13, 15, 21, 15, 12, 10, 13, 24, 25, 19, 17, 11, 21, 10], [23, 10, 10, 14, 25, 13, 13, 11, 19, 13, 24, 13, 19, 19, 20, 18, 15, 11, 10, 13, 25, 12, 18, 24, 11, 17, 18, 22, 19, 11, 21, 23, 25, 22, 15, 22, 21, 11, 17, 16, 21, 24, 11, 15, 14, 11, 14, 11, 23, 17], [11, 18, 14, 13, 20, 17, 14, 21, 18, 15, 12, 11, 13, 15, 11, 23, 15, 17, 24, 17, 20, 15, 19, 14, 16, 13, 15, 19, 16, 21, 11, 13, 14, 11, 19, 17, 21, 11, 18, 15, 11, 20, 14, 17, 14, 20, 16, 18, 11, 21], [17, 10, 22, 24, 12, 14, 10, 21, 15, 25, 17, 15, 15, 14, 13, 16, 13, 19, 12, 21, 20, 15, 12, 22, 20, 22, 10, 16, 24, 24, 15, 12, 24, 14, 18, 23, 19, 23, 20, 13, 13, 22, 11, 18, 25, 15, 24, 18, 10, 19], [12, 25, 20, 21, 22, 24, 12, 22, 14, 15, 15, 12, 17, 17, 11, 23, 14, 23, 14, 13, 20, 22, 11, 21, 19, 12, 18, 24, 16, 11, 22, 15, 11, 14, 16, 18, 17, 22, 16, 22, 19, 17, 10, 19, 12, 21, 13, 18, 22, 23], [11, 18, 14, 23, 18, 11, 15, 19, 17, 12, 18, 19, 25, 24, 14, 17, 21, 20, 21, 13, 20, 11, 21, 17, 18, 12, 15, 17, 15, 11, 18, 18, 16, 14, 18, 24, 15, 19, 16, 24, 13, 23, 17, 13, 12, 15, 18, 21, 13, 18], [16, 24, 19, 17, 25, 22, 24, 15, 21, 12, 15, 13, 14, 22, 11, 24, 17, 20, 13, 13, 13, 17, 18, 17, 14, 24, 23, 22, 16, 14, 18, 14, 17, 20, 11, 21, 18, 17, 24, 12, 10, 19, 16, 17, 11, 19, 24, 17, 20, 23], [13, 23, 21, 23, 24, 16, 15, 15, 17, 19, 22, 21, 21, 24, 14, 10, 18, 11, 24, 16, 15, 19, 18, 15, 15, 20, 11, 24, 20, 23, 17, 10, 10, 12, 18, 22, 25, 19, 22, 16, 12, 11, 17, 12, 19, 24, 20, 17, 22, 23]];
c = [[[0, 0, 0, 0, 0, 0, 0, 0, 0, 0, 0, 0, 0, 0, 0, 0, 0, 0, 0, 0, 0, 0, 0, 0, 0, 0, 0, 0, 0, 0, 0, 0, 0, 0, 0, 0, 0, 0, 0, 0, 0, 0, 0, 0, 0, 0, 0, 0, 0, 0], [43, 45, 39, 39, 49, 48, 46, 32, 41, 34, 43, 34, 35, 46, 41, 49, 35, 34, 31, 39, 45, 36, 49, 43, 37, 38, 49, 49, 48, 48, 50, 42, 33, 48, 30, 41, 43, 31, 32, 31, 50, 36, 36, 35, 39, 35, 37, 42, 50, 32], [32, 37, 35, 31, 45, 41, 33, 30, 43, 49, 43, 30, 41, 48, 49, 38, 35, 46, 34, 50, 36, 46, 32, 32, 43, 36, 30, 32, 30, 49, 47, 39, 37, 45, 38, 48, 45, 50, 32, 30, 36, 40, 42, 40, 44, 31, 48, 49, 36, 43], [36, 49, 47, 44, 38, 32, 44, 41, 49, 47, 46, 34, 41, 35, 45, 40, 41, 43, 37, 39, 41, 47, 46, 45, 45, 34, 32, 44, 36, 41, 43, 44, 40, 44, 32, 41, 50, 43, 34, 39, 39, 39, 48, 47, 39, 41, 37, 44, 32, 30], [36, 45, 45, 36, 32, 45, 37, 46, 32, 45, 40, 48, 38, 31, 48, 48, 32, 36, 33, 41, 45, 41, 43, 39, 45, 38, 47, 47, 32, 46, 41, 34, 40, 44, 46, 48, 38, 48, 46, 49, 36, 50, 47, 37, 30, 36, 49, 39, 46, 34], [45, 39, 40, 40, 37, 44, 32, 33, 31, 36, 36, 41, 34, 41, 47, 48, 33, 48, 42, 46, 44, 42, 39, 50, 38, 30, 31, 44, 49, 32, 46, 38, 50, 50, 47, 40, 47, 34, 48, 41, 38, 34, 49, 33, 32, 38, 50, 42, 30, 44], [40, 45, 43, 40, 32, 40, 37, 38, 45, 48, 49, 50, 32, 37, 37, 32, 47, 38, 48, 33, 47, 30, 39, 42, 47, 43, 42, 36, 46, 30, 32, 47, 38, 32, 49, 50, 32, 33, 50, 49, 34, 35, 44, 40, 38, 47, 45, 48, 43, 30], [31, 32, 45, 45, 48, 37, 41, 39, 42, 46, 30, 32, 33, 47, 33, 50, 50, 47, 34, 46, 30, 47, 30, 39, 37, 37, 46, 35, 41, 43, 31, 46, 37, 42, 46, 37, 31, 48, 43, 40, 48, 34, 46, 48, 38, 42, 50, 38, 46, 41], [39, 46, 44, 48, 39, 33, 46, 43, 36, 47, 35, 50, 38, 34, 46, 38, 37, 40, 42, 43, 35, 33, 38, 42, 31, 36, 35, 40, 32, 35, 38, 50, 31, 37, 37, 38, 30, 37, 34, 50, 47, 44, 44, 37, 45, 30, 49, 40, 43, 48], [46, 38, 48, 44, 39, 38, 37, 36, 46, 47, 45, 46, 44, 46, 41, 31, 35, 45, 33, 43, 34, 40, 36, 47, 39, 31, 34, 46, 33, 35, 48, 49, 41, 40, 44, 37, 37, 44, 44, 32, 46, 41, 42, 44, 42, 35, 39, 48, 42, 44]], [[0, 0, 0, 0, 0, 0, 0, 0, 0, 0, 0, 0, 0, 0, 0, 0, 0, 0, 0, 0, 0, 0, 0, 0, 0, 0, 0, 0, 0, 0, 0, 0, 0, 0, 0, 0, 0, 0, 0, 0, 0, 0, 0, 0, 0, 0, 0, 0, 0, 0], [0, 0, 0, 0, 0, 0, 0, 0, 0, 0, 0, 0, 0, 0, 0, 0, 0, 0, 0, 0, 0, 0, 0, 0, 0, 0, 0, 0, 0, 0, 0, 0, 0, 0, 0, 0, 0, 0, 0, 0, 0, 0, 0, 0, 0, 0, 0, 0, 0, 0], [31, 30, 49, 31, 46, 42, 39, 42, 48, 48, 39, 50, 45, 41, 43, 47, 47, 37, 33, 37, 43, 44, 48, 38, 41, 35, 45, 43, 33, 50, 34, 49, 50, 35, 31, 36, 43, 43, 35, 31, 33, 37, 49, 36, 50, 32, 35, 40, 48, 32], [38, 31, 39, 43, 45, 44, 47, 41, 47, 41, 35, 50, 49, 35, 43, 48, 33, 49, 47, 49, 42, 50, 41, 33, 48, 49, 45, 46, 43, 45, 32, 38, 36, 43, 30, 34, 30, 32, 48, 42, 46, 45, 46, 45, 30, 43, 50, 44, 49, 47], [41, 32, 40, 39, 36, 36, 42, 44, 35, 45, 48, 47, 45, 45, 35, 40, 44, 32, 41, 40, 48, 34, 36, 43, 42, 34, 48, 30, 47, 37, 48, 37, 43, 41, 44, 33, 33, 40, 37, 39, 39, 39, 37, 40, 45, 38, 37, 35, 45, 49], [37, 47, 36, 41, 47, 30, 47, 30, 46, 31, 47, 33, 44, 49, 45, 47, 36, 50, 47, 39, 49, 49, 43, 43, 34, 41, 46, 33, 43, 49, 46, 32, 30, 39, 36, 34, 38, 30, 40, 50, 33, 33, 41, 41, 49, 33, 42, 36, 35, 34], [43, 44, 47, 41, 34, 49, 35, 30, 44, 37, 38, 48, 31, 43, 50, 35, 40, 42, 50, 37, 47, 45, 32, 44, 33, 39, 45, 47, 42, 42, 46, 49, 38, 36, 49, 30, 41, 48, 31, 44, 46, 43, 31, 49, 35, 50, 47, 50, 49, 42], [50, 50, 35, 36, 40, 49, 41, 36, 34, 48, 43, 47, 41, 33, 44, 37, 41, 39, 30, 42, 36, 50, 36, 44, 43, 34, 39, 49, 35, 33, 46, 45, 48, 31, 43, 36, 43, 47, 34, 45, 37, 45, 47, 32, 31, 39, 44, 41, 45, 39], [32, 39, 31, 44, 31, 34, 30, 33, 34, 41, 30, 30, 46, 34, 35, 30, 48, 50, 40, 40, 45, 37, 38, 35, 41, 38, 39, 43, 44, 49, 43, 42, 45, 34, 36, 39, 31, 49, 33, 33, 38, 38, 40, 35, 47, 46, 47, 43, 41, 42], [45, 47, 37, 50, 39, 32, 37, 40, 46, 42, 40, 48, 38, 38, 30, 30, 40, 48, 45, 42, 33, 32, 38, 38, 37, 38, 43, 36, 36, 46, 34, 34, 36, 48, 37, 32, 49, 50, 50, 35, 36, 42, 33, 40, 50, 30, 31, 40, 43, 46]], [[0, 0, 0, 0, 0, 0, 0, 0, 0, 0, 0, 0, 0, 0, 0, 0, 0, 0, 0, 0, 0, 0, 0, 0, 0, 0, 0, 0, 0, 0, 0, 0, 0, 0, 0, 0, 0, 0, 0, 0, 0, 0, 0, 0, 0, 0, 0, 0, 0, 0], [0, 0, 0, 0, 0, 0, 0, 0, 0, 0, 0, 0, 0, 0, 0, 0, 0, 0, 0, 0, 0, 0, 0, 0, 0, 0, 0, 0, 0, 0, 0, 0, 0, 0, 0, 0, 0, 0, 0, 0, 0, 0, 0, 0, 0, 0, 0, 0, 0, 0], [0, 0, 0, 0, 0, 0, 0, 0, 0, 0, 0, 0, 0, 0, 0, 0, 0, 0, 0, 0, 0, 0, 0, 0, 0, 0, 0, 0, 0, 0, 0, 0, 0, 0, 0, 0, 0, 0, 0, 0, 0, 0, 0, 0, 0, 0, 0, 0, 0, 0], [34, 47, 50, 47, 40, 31, 35, 33, 47, 36, 49, 37, 46, 48, 45, 49, 46, 31, 46, 40, 41, 48, 32, 34, 50, 40, 34, 30, 37, 35, 37, 32, 36, 42, 36, 40, 48, 36, 34, 50, 36, 45, 50, 46, 44, 49, 41, 48, 44, 49], [30, 47, 39, 50, 37, 34, 43, 43, 46, 43, 49, 38, 38, 42, 34, 41, 37, 32, 40, 34, 38, 43, 42, 31, 44, 45, 43, 41, 34, 44, 36, 42, 40, 42, 43, 31, 48, 45, 40, 39, 35, 38, 31, 49, 33, 34, 34, 46, 35, 50], [45, 45, 49, 47, 39, 35, 34, 36, 40, 48, 30, 45, 38, 30, 35, 43, 50, 34, 32, 30, 44, 30, 40, 34, 33, 39, 42, 45, 45, 40, 46, 47, 34, 49, 37, 45, 41, 44, 45, 40, 30, 36, 42, 37, 41, 33, 41, 43, 31, 34], [42, 35, 34, 46, 44, 30, 36, 35, 47, 49, 43, 40, 34, 33, 34, 35, 39, 43, 45, 46, 45, 46, 35, 34, 36, 34, 49, 38, 45, 33, 47, 45, 36, 50, 47, 49, 48, 44, 30, 45, 30, 44, 49, 50, 33, 39, 36, 42, 48, 44], [35, 41, 48, 42, 46, 32, 36, 41, 45, 33, 34, 30, 49, 34, 43, 47, 35, 33, 38, 37, 31, 50, 30, 37, 45, 42, 41, 38, 40, 40, 30, 37, 33, 38, 41, 36, 41, 50, 45, 40, 33, 38, 42, 46, 36, 34, 37, 33, 34, 48], [31, 45, 36, 30, 34, 50, 43, 38, 42, 45, 38, 36, 33, 32, 35, 40, 31, 33, 39, 38, 46, 40, 46, 48, 32, 46, 47, 48, 41, 41, 32, 40, 41, 33, 31, 48, 31, 36, 30, 41, 33, 42, 36, 33, 49, 45, 46, 43, 46, 45], [45, 32, 46, 32, 38, 36, 32, 33, 42, 36, 41, 48, 45, 48, 45, 33, 43, 42, 47, 44, 40, 46, 46, 32, 34, 41, 37, 38, 46, 31, 47, 40, 34, 36, 31, 48, 33, 40, 47, 49, 43, 38, 35, 32, 34, 48, 48, 45, 42, 30]], [[0, 0, 0, 0, 0, 0, 0, 0, 0, 0, 0, 0, 0, 0, 0, 0, 0, 0, 0, 0, 0, 0, 0, 0, 0, 0, 0, 0, 0, 0, 0, 0, 0, 0, 0, 0, 0, 0, 0, 0, 0, 0, 0, 0, 0, 0, 0, 0, 0, 0], [0, 0, 0, 0, 0, 0, 0, 0, 0, 0, 0, 0, 0, 0, 0, 0, 0, 0, 0, 0, 0, 0, 0, 0, 0, 0, 0, 0, 0, 0, 0, 0, 0, 0, 0, 0, 0, 0, 0, 0, 0, 0, 0, 0, 0, 0, 0, 0, 0, 0], [0, 0, 0, 0, 0, 0, 0, 0, 0, 0, 0, 0, 0, 0, 0, 0, 0, 0, 0, 0, 0, 0, 0, 0, 0, 0, 0, 0, 0, 0, 0, 0, 0, 0, 0, 0, 0, 0, 0, 0, 0, 0, 0, 0, 0, 0, 0, 0, 0, 0], [0, 0, 0, 0, 0, 0, 0, 0, 0, 0, 0, 0, 0, 0, 0, 0, 0, 0, 0, 0, 0, 0, 0, 0, 0, 0, 0, 0, 0, 0, 0, 0, 0, 0, 0, 0, 0, 0, 0, 0, 0, 0, 0, 0, 0, 0, 0, 0, 0, 0], [40, 37, 47, 47, 34, 50, 49, 40, 31, 41, 41, 46, 42, 35, 30, 50, 37, 41, 50, 38, 40, 35, 31, 38, 41, 42, 31, 47, 37, 47, 39, 36, 48, 33, 32, 32, 47, 40, 32, 44, 50, 31, 47, 38, 34, 48, 48, 50, 39, 40], [30, 47, 37, 43, 38, 39, 40, 43, 39, 36, 42, 49, 45, 42, 48, 45, 46, 45, 32, 44, 47, 48, 46, 46, 30, 35, 35, 36, 38, 33, 43, 37, 46, 44, 42, 42, 49, 47, 41, 34, 43, 49, 47, 32, 43, 35, 42, 46, 49, 49], [41, 49, 39, 41, 49, 44, 39, 33, 41, 35, 43, 38, 49, 38, 38, 49, 40, 32, 44, 40, 47, 36, 47, 33, 41, 33, 30, 41, 45, 45, 32, 38, 45, 46, 33, 39, 50, 32, 30, 48, 34, 30, 44, 33, 34, 48, 50, 31, 30, 32], [49, 49, 39, 45, 47, 47, 42, 44, 49, 35, 38, 30, 30, 41, 49, 37, 39, 42, 42, 36, 37, 30, 39, 44, 34, 44, 49, 47, 30, 49, 31, 37, 50, 42, 34, 30, 41, 39, 32, 40, 30, 47, 46, 43, 49, 38, 32, 33, 41, 38], [41, 33, 41, 49, 33, 42, 49, 48, 36, 50, 45, 48, 39, 35, 31, 48, 36, 50, 50, 40, 32, 31, 35, 32, 47, 40, 43, 38, 45, 37, 47, 39, 40, 44, 35, 44, 49, 31, 38, 39, 41, 33, 36, 49, 42, 43, 31, 37, 47, 47], [45, 36, 30, 36, 44, 42, 50, 36, 33, 47, 34, 34, 39, 46, 33, 32, 40, 32, 32, 50, 34, 42, 48, 38, 30, 43, 43, 33, 40, 47, 44, 37, 34, 40, 32, 32, 35, 38, 39, 34, 31, 42, 41, 37, 39, 44, 41, 39, 42, 38]], [[0, 0, 0, 0, 0, 0, 0, 0, 0, 0, 0, 0, 0, 0, 0, 0, 0, 0, 0, 0, 0, 0, 0, 0, 0, 0, 0, 0, 0, 0, 0, 0, 0, 0, 0, 0, 0, 0, 0, 0, 0, 0, 0, 0, 0, 0, 0, 0, 0, 0], [0, 0, 0, 0, 0, 0, 0, 0, 0, 0, 0, 0, 0, 0, 0, 0, 0, 0, 0, 0, 0, 0, 0, 0, 0, 0, 0, 0, 0, 0, 0, 0, 0, 0, 0, 0, 0, 0, 0, 0, 0, 0, 0, 0, 0, 0, 0, 0, 0, 0], [0, 0, 0, 0, 0, 0, 0, 0, 0, 0, 0, 0, 0, 0, 0, 0, 0, 0, 0, 0, 0, 0, 0, 0, 0, 0, 0, 0, 0, 0, 0, 0, 0, 0, 0, 0, 0, 0, 0, 0, 0, 0, 0, 0, 0, 0, 0, 0, 0, 0], [0, 0, 0, 0, 0, 0, 0, 0, 0, 0, 0, 0, 0, 0, 0, 0, 0, 0, 0, 0, 0, 0, 0, 0, 0, 0, 0, 0, 0, 0, 0, 0, 0, 0, 0, 0, 0, 0, 0, 0, 0, 0, 0, 0, 0, 0, 0, 0, 0, 0], [0, 0, 0, 0, 0, 0, 0, 0, 0, 0, 0, 0, 0, 0, 0, 0, 0, 0, 0, 0, 0, 0, 0, 0, 0, 0, 0, 0, 0, 0, 0, 0, 0, 0, 0, 0, 0, 0, 0, 0, 0, 0, 0, 0, 0, 0, 0, 0, 0, 0], [32, 36, 47, 47, 31, 32, 33, 34, 36, 35, 49, 46, 50, 42, 43, 40, 49, 34, 50, 33, 33, 36, 35, 33, 47, 50, 42, 33, 46, 39, 46, 36, 40, 46, 50, 31, 40, 48, 41, 33, 49, 37, 48, 33, 46, 45, 33, 33, 48, 44], [32, 45, 31, 49, 32, 31, 41, 38, 48, 40, 48, 48, 32, 44, 49, 47, 41, 30, 41, 49, 40, 47, 30, 42, 32, 38, 50, 48, 39, 35, 45, 40, 34, 41, 34, 34, 37, 41, 45, 42, 31, 34, 49, 38, 46, 32, 41, 38, 46, 35], [34, 50, 38, 45, 39, 42, 41, 47, 30, 47, 43, 30, 42, 44, 41, 47, 39, 39, 32, 45, 30, 37, 43, 37, 31, 40, 38, 30, 41, 47, 37, 31, 31, 34, 33, 46, 31, 30, 41, 31, 34, 33, 38, 32, 36, 40, 43, 40, 45, 49], [30, 34, 44, 33, 39, 33, 40, 39, 38, 31, 41, 50, 32, 43, 36, 31, 39, 44, 44, 31, 38, 46, 36, 35, 37, 34, 42, 35, 44, 35, 37, 40, 48, 48, 44, 30, 32, 48, 31, 47, 45, 39, 34, 48, 31, 44, 38, 47, 34, 43], [47, 32, 48, 43, 38, 35, 43, 37, 47, 31, 38, 43, 35, 31, 30, 40, 36, 37, 37, 48, 50, 44, 42, 40, 35, 34, 33, 43, 32, 33, 34, 30, 45, 34, 50, 39, 50, 30, 35, 43, 35, 49, 39, 40, 37, 48, 42, 46, 50, 44]], [[0, 0, 0, 0, 0, 0, 0, 0, 0, 0, 0, 0, 0, 0, 0, 0, 0, 0, 0, 0, 0, 0, 0, 0, 0, 0, 0, 0, 0, 0, 0, 0, 0, 0, 0, 0, 0, 0, 0, 0, 0, 0, 0, 0, 0, 0, 0, 0, 0, 0], [0, 0, 0, 0, 0, 0, 0, 0, 0, 0, 0, 0, 0, 0, 0, 0, 0, 0, 0, 0, 0, 0, 0, 0, 0, 0, 0, 0, 0, 0, 0, 0, 0, 0, 0, 0, 0, 0, 0, 0, 0, 0, 0, 0, 0, 0, 0, 0, 0, 0], [0, 0, 0, 0, 0, 0, 0, 0, 0, 0, 0, 0, 0, 0, 0, 0, 0, 0, 0, 0, 0, 0, 0, 0, 0, 0, 0, 0, 0, 0, 0, 0, 0, 0, 0, 0, 0, 0, 0, 0, 0, 0, 0, 0, 0, 0, 0, 0, 0, 0], [0, 0, 0, 0, 0, 0, 0, 0, 0, 0, 0, 0, 0, 0, 0, 0, 0, 0, 0, 0, 0, 0, 0, 0, 0, 0, 0, 0, 0, 0, 0, 0, 0, 0, 0, 0, 0, 0, 0, 0, 0, 0, 0, 0, 0, 0, 0, 0, 0, 0], [0, 0, 0, 0, 0, 0, 0, 0, 0, 0, 0, 0, 0, 0, 0, 0, 0, 0, 0, 0, 0, 0, 0, 0, 0, 0, 0, 0, 0, 0, 0, 0, 0, 0, 0, 0, 0, 0, 0, 0, 0, 0, 0, 0, 0, 0, 0, 0, 0, 0], [0, 0, 0, 0, 0, 0, 0, 0, 0, 0, 0, 0, 0, 0, 0, 0, 0, 0, 0, 0, 0, 0, 0, 0, 0, 0, 0, 0, 0, 0, 0, 0, 0, 0, 0, 0, 0, 0, 0, 0, 0, 0, 0, 0, 0, 0, 0, 0, 0, 0], [46, 47, 31, 31, 40, 42, 49, 34, 32, 49, 32, 39, 32, 32, 44, 46, 42, 30, 46, 48, 45, 48, 41, 32, 38, 32, 35, 45, 45, 30, 45, 34, 46, 39, 48, 43, 47, 49, 48, 38, 32, 46, 39, 40, 45, 31, 47, 36, 31, 49], [43, 33, 35, 44, 37, 41, 50, 35, 31, 31, 33, 47, 38, 38, 33, 49, 42, 32, 43, 30, 42, 47, 40, 49, 40, 30, 32, 39, 49, 33, 35, 45, 34, 45, 38, 31, 42, 50, 36, 37, 39, 43, 50, 49, 48, 40, 37, 43, 50, 41], [31, 35, 43, 31, 39, 31, 35, 40, 35, 32, 47, 34, 48, 38, 43, 40, 37, 42, 32, 42, 46, 49, 40, 41, 37, 32, 41, 49, 37, 48, 40, 36, 39, 34, 50, 39, 30, 37, 42, 49, 50, 30, 37, 38, 49, 45, 42, 46, 36, 44], [37, 35, 41, 32, 46, 33, 32, 50, 39, 30, 41, 44, 36, 39, 35, 44, 37, 42, 36, 43, 48, 46, 42, 49, 35, 35, 34, 34, 41, 36, 45, 37, 36, 30, 35, 35, 45, 43, 46, 38, 38, 42, 36, 49, 38, 49, 48, 34, 37, 32]], [[0, 0, 0, 0, 0, 0, 0, 0, 0, 0, 0, 0, 0, 0, 0, 0, 0, 0, 0, 0, 0, 0, 0, 0, 0, 0, 0, 0, 0, 0, 0, 0, 0, 0, 0, 0, 0, 0, 0, 0, 0, 0, 0, 0, 0, 0, 0, 0, 0, 0], [0, 0, 0, 0, 0, 0, 0, 0, 0, 0, 0, 0, 0, 0, 0, 0, 0, 0, 0, 0, 0, 0, 0, 0, 0, 0, 0, 0, 0, 0, 0, 0, 0, 0, 0, 0, 0, 0, 0, 0, 0, 0, 0, 0, 0, 0, 0, 0, 0, 0], [0, 0, 0, 0, 0, 0, 0, 0, 0, 0, 0, 0, 0, 0, 0, 0, 0, 0, 0, 0, 0, 0, 0, 0, 0, 0, 0, 0, 0, 0, 0, 0, 0, 0, 0, 0, 0, 0, 0, 0, 0, 0, 0, 0, 0, 0, 0, 0, 0, 0], [0, 0, 0, 0, 0, 0, 0, 0, 0, 0, 0, 0, 0, 0, 0, 0, 0, 0, 0, 0, 0, 0, 0, 0, 0, 0, 0, 0, 0, 0, 0, 0, 0, 0, 0, 0, 0, 0, 0, 0, 0, 0, 0, 0, 0, 0, 0, 0, 0, 0], [0, 0, 0, 0, 0, 0, 0, 0, 0, 0, 0, 0, 0, 0, 0, 0, 0, 0, 0, 0, 0, 0, 0, 0, 0, 0, 0, 0, 0, 0, 0, 0, 0, 0, 0, 0, 0, 0, 0, 0, 0, 0, 0, 0, 0, 0, 0, 0, 0, 0], [0, 0, 0, 0, 0, 0, 0, 0, 0, 0, 0, 0, 0, 0, 0, 0, 0, 0, 0, 0, 0, 0, 0, 0, 0, 0, 0, 0, 0, 0, 0, 0, 0, 0, 0, 0, 0, 0, 0, 0, 0, 0, 0, 0, 0, 0, 0, 0, 0, 0], [0, 0, 0, 0, 0, 0, 0, 0, 0, 0, 0, 0, 0, 0, 0, 0, 0, 0, 0, 0, 0, 0, 0, 0, 0, 0, 0, 0, 0, 0, 0, 0, 0, 0, 0, 0, 0, 0, 0, 0, 0, 0, 0, 0, 0, 0, 0, 0, 0, 0], [38, 43, 43, 32, 39, 37, 30, 39, 50, 48, 36, 31, 48, 48, 37, 34, 47, 42, 43, 38, 42, 44, 48, 38, 35, 43, 39, 32, 38, 42, 46, 46, 40, 47, 45, 46, 39, 42, 31, 32, 41, 45, 35, 48, 46, 39, 30, 42, 50, 42], [35, 39, 46, 43, 35, 30, 33, 44, 35, 38, 38, 35, 32, 50, 33, 30, 40, 34, 45, 45, 43, 40, 42, 32, 42, 45, 42, 44, 32, 35, 42, 42, 41, 45, 30, 37, 31, 34, 41, 31, 32, 44, 31, 49, 33, 49, 39, 37, 50, 35], [32, 49, 33, 41, 46, 39, 35, 42, 31, 35, 38, 50, 46, 48, 36, 32, 47, 44, 38, 42, 38, 37, 40, 38, 44, 41, 39, 50, 34, 48, 42, 44, 50, 32, 33, 48, 39, 30, 35, 47, 38, 34, 35, 30, 41, 30, 35, 32, 50, 49]], [[0, 0, 0, 0, 0, 0, 0, 0, 0, 0, 0, 0, 0, 0, 0, 0, 0, 0, 0, 0, 0, 0, 0, 0, 0, 0, 0, 0, 0, 0, 0, 0, 0, 0, 0, 0, 0, 0, 0, 0, 0, 0, 0, 0, 0, 0, 0, 0, 0, 0], [0, 0, 0, 0, 0, 0, 0, 0, 0, 0, 0, 0, 0, 0, 0, 0, 0, 0, 0, 0, 0, 0, 0, 0, 0, 0, 0, 0, 0, 0, 0, 0, 0, 0, 0, 0, 0, 0, 0, 0, 0, 0, 0, 0, 0, 0, 0, 0, 0, 0], [0, 0, 0, 0, 0, 0, 0, 0, 0, 0, 0, 0, 0, 0, 0, 0, 0, 0, 0, 0, 0, 0, 0, 0, 0, 0, 0, 0, 0, 0, 0, 0, 0, 0, 0, 0, 0, 0, 0, 0, 0, 0, 0, 0, 0, 0, 0, 0, 0, 0], [0, 0, 0, 0, 0, 0, 0, 0, 0, 0, 0, 0, 0, 0, 0, 0, 0, 0, 0, 0, 0, 0, 0, 0, 0, 0, 0, 0, 0, 0, 0, 0, 0, 0, 0, 0, 0, 0, 0, 0, 0, 0, 0, 0, 0, 0, 0, 0, 0, 0], [0, 0, 0, 0, 0, 0, 0, 0, 0, 0, 0, 0, 0, 0, 0, 0, 0, 0, 0, 0, 0, 0, 0, 0, 0, 0, 0, 0, 0, 0, 0, 0, 0, 0, 0, 0, 0, 0, 0, 0, 0, 0, 0, 0, 0, 0, 0, 0, 0, 0], [0, 0, 0, 0, 0, 0, 0, 0, 0, 0, 0, 0, 0, 0, 0, 0, 0, 0, 0, 0, 0, 0, 0, 0, 0, 0, 0, 0, 0, 0, 0, 0, 0, 0, 0, 0, 0, 0, 0, 0, 0, 0, 0, 0, 0, 0, 0, 0, 0, 0], [0, 0, 0, 0, 0, 0, 0, 0, 0, 0, 0, 0, 0, 0, 0, 0, 0, 0, 0, 0, 0, 0, 0, 0, 0, 0, 0, 0, 0, 0, 0, 0, 0, 0, 0, 0, 0, 0, 0, 0, 0, 0, 0, 0, 0, 0, 0, 0, 0, 0], [0, 0, 0, 0, 0, 0, 0, 0, 0, 0, 0, 0, 0, 0, 0, 0, 0, 0, 0, 0, 0, 0, 0, 0, 0, 0, 0, 0, 0, 0, 0, 0, 0, 0, 0, 0, 0, 0, 0, 0, 0, 0, 0, 0, 0, 0, 0, 0, 0, 0], [49, 50, 35, 47, 36, 31, 35, 45, 36, 44, 48, 30, 39, 41, 42, 33, 47, 46, 36, 45, 38, 43, 40, 37, 48, 45, 45, 48, 43, 45, 37, 45, 30, 47, 30, 47, 48, 30, 34, 38, 47, 32, 33, 41, 43, 34, 44, 36, 47, 32], [42, 30, 40, 32, 38, 31, 41, 34, 31, 41, 36, 44, 50, 30, 41, 46, 35, 49, 40, 41, 43, 46, 45, 41, 37, 41, 32, 49, 41, 41, 42, 47, 35, 48, 30, 39, 49, 36, 40, 49, 42, 38, 34, 43, 48, 36, 43, 42, 45, 37]], [[0, 0, 0, 0, 0, 0, 0, 0, 0, 0, 0, 0, 0, 0, 0, 0, 0, 0, 0, 0, 0, 0, 0, 0, 0, 0, 0, 0, 0, 0, 0, 0, 0, 0, 0, 0, 0, 0, 0, 0, 0, 0, 0, 0, 0, 0, 0, 0, 0, 0], [0, 0, 0, 0, 0, 0, 0, 0, 0, 0, 0, 0, 0, 0, 0, 0, 0, 0, 0, 0, 0, 0, 0, 0, 0, 0, 0, 0, 0, 0, 0, 0, 0, 0, 0, 0, 0, 0, 0, 0, 0, 0, 0, 0, 0, 0, 0, 0, 0, 0], [0, 0, 0, 0, 0, 0, 0, 0, 0, 0, 0, 0, 0, 0, 0, 0, 0, 0, 0, 0, 0, 0, 0, 0, 0, 0, 0, 0, 0, 0, 0, 0, 0, 0, 0, 0, 0, 0, 0, 0, 0, 0, 0, 0, 0, 0, 0, 0, 0, 0], [0, 0, 0, 0, 0, 0, 0, 0, 0, 0, 0, 0, 0, 0, 0, 0, 0, 0, 0, 0, 0, 0, 0, 0, 0, 0, 0, 0, 0, 0, 0, 0, 0, 0, 0, 0, 0, 0, 0, 0, 0, 0, 0, 0, 0, 0, 0, 0, 0, 0], [0, 0, 0, 0, 0, 0, 0, 0, 0, 0, 0, 0, 0, 0, 0, 0, 0, 0, 0, 0, 0, 0, 0, 0, 0, 0, 0, 0, 0, 0, 0, 0, 0, 0, 0, 0, 0, 0, 0, 0, 0, 0, 0, 0, 0, 0, 0, 0, 0, 0], [0, 0, 0, 0, 0, 0, 0, 0, 0, 0, 0, 0, 0, 0, 0, 0, 0, 0, 0, 0, 0, 0, 0, 0, 0, 0, 0, 0, 0, 0, 0, 0, 0, 0, 0, 0, 0, 0, 0, 0, 0, 0, 0, 0, 0, 0, 0, 0, 0, 0], [0, 0, 0, 0, 0, 0, 0, 0, 0, 0, 0, 0, 0, 0, 0, 0, 0, 0, 0, 0, 0, 0, 0, 0, 0, 0, 0, 0, 0, 0, 0, 0, 0, 0, 0, 0, 0, 0, 0, 0, 0, 0, 0, 0, 0, 0, 0, 0, 0, 0], [0, 0, 0, 0, 0, 0, 0, 0, 0, 0, 0, 0, 0, 0, 0, 0, 0, 0, 0, 0, 0, 0, 0, 0, 0, 0, 0, 0, 0, 0, 0, 0, 0, 0, 0, 0, 0, 0, 0, 0, 0, 0, 0, 0, 0, 0, 0, 0, 0, 0], [0, 0, 0, 0, 0, 0, 0, 0, 0, 0, 0, 0, 0, 0, 0, 0, 0, 0, 0, 0, 0, 0, 0, 0, 0, 0, 0, 0, 0, 0, 0, 0, 0, 0, 0, 0, 0, 0, 0, 0, 0, 0, 0, 0, 0, 0, 0, 0, 0, 0], [38, 44, 34, 49, 31, 38, 39, 39, 33, 42, 31, 31, 42, 46, 32, 41, 38, 45, 47, 50, 46, 41, 39, 30, 50, 39, 47, 42, 30, 49, 30, 50, 41, 31, 30, 36, 37, 36, 49, 50, 37, 32, 35, 43, 36, 49, 39, 40, 49, 44]], [[0, 0, 0, 0, 0, 0, 0, 0, 0, 0, 0, 0, 0, 0, 0, 0, 0, 0, 0, 0, 0, 0, 0, 0, 0, 0, 0, 0, 0, 0, 0, 0, 0, 0, 0, 0, 0, 0, 0, 0, 0, 0, 0, 0, 0, 0, 0, 0, 0, 0], [0, 0, 0, 0, 0, 0, 0, 0, 0, 0, 0, 0, 0, 0, 0, 0, 0, 0, 0, 0, 0, 0, 0, 0, 0, 0, 0, 0, 0, 0, 0, 0, 0, 0, 0, 0, 0, 0, 0, 0, 0, 0, 0, 0, 0, 0, 0, 0, 0, 0], [0, 0, 0, 0, 0, 0, 0, 0, 0, 0, 0, 0, 0, 0, 0, 0, 0, 0, 0, 0, 0, 0, 0, 0, 0, 0, 0, 0, 0, 0, 0, 0, 0, 0, 0, 0, 0, 0, 0, 0, 0, 0, 0, 0, 0, 0, 0, 0, 0, 0], [0, 0, 0, 0, 0, 0, 0, 0, 0, 0, 0, 0, 0, 0, 0, 0, 0, 0, 0, 0, 0, 0, 0, 0, 0, 0, 0, 0, 0, 0, 0, 0, 0, 0, 0, 0, 0, 0, 0, 0, 0, 0, 0, 0, 0, 0, 0, 0, 0, 0], [0, 0, 0, 0, 0, 0, 0, 0, 0, 0, 0, 0, 0, 0, 0, 0, 0, 0, 0, 0, 0, 0, 0, 0, 0, 0, 0, 0, 0, 0, 0, 0, 0, 0, 0, 0, 0, 0, 0, 0, 0, 0, 0, 0, 0, 0, 0, 0, 0, 0], [0, 0, 0, 0, 0, 0, 0, 0, 0, 0, 0, 0, 0, 0, 0, 0, 0, 0, 0, 0, 0, 0, 0, 0, 0, 0, 0, 0, 0, 0, 0, 0, 0, 0, 0, 0, 0, 0, 0, 0, 0, 0, 0, 0, 0, 0, 0, 0, 0, 0], [0, 0, 0, 0, 0, 0, 0, 0, 0, 0, 0, 0, 0, 0, 0, 0, 0, 0, 0, 0, 0, 0, 0, 0, 0, 0, 0, 0, 0, 0, 0, 0, 0, 0, 0, 0, 0, 0, 0, 0, 0, 0, 0, 0, 0, 0, 0, 0, 0, 0], [0, 0, 0, 0, 0, 0, 0, 0, 0, 0, 0, 0, 0, 0, 0, 0, 0, 0, 0, 0, 0, 0, 0, 0, 0, 0, 0, 0, 0, 0, 0, 0, 0, 0, 0, 0, 0, 0, 0, 0, 0, 0, 0, 0, 0, 0, 0, 0, 0, 0], [0, 0, 0, 0, 0, 0, 0, 0, 0, 0, 0, 0, 0, 0, 0, 0, 0, 0, 0, 0, 0, 0, 0, 0, 0, 0, 0, 0, 0, 0, 0, 0, 0, 0, 0, 0, 0, 0, 0, 0, 0, 0, 0, 0, 0, 0, 0, 0, 0, 0], [0, 0, 0, 0, 0, 0, 0, 0, 0, 0, 0, 0, 0, 0, 0, 0, 0, 0, 0, 0, 0, 0, 0, 0, 0, 0, 0, 0, 0, 0, 0, 0, 0, 0, 0, 0, 0, 0, 0, 0, 0, 0, 0, 0, 0, 0, 0, 0, 0, 0]]];

q = [[[20], [16], [7], [12], [15], [19], [9], [23], [10], [15], [20], [23], [20], [20], [9], [16], [5], [16], [14], [8], [19], [18], [23], [13], [12], [17], [6], [14], [14], [19], [21], [20], [11], [12], [20], [24], [7], [18], [11], [15], [22], [6], [7], [6], [8], [9], [17], [16], [24], [18]], [[8], [11], [17], [22], [7], [11], [20], [9], [17], [13], [12], [7], [7], [13], [11], [21], [18], [16], [17], [8], [18], [10], [11], [18], [13], [9], [6], [11], [20], [9], [14], [22], [8], [11], [15], [23], [23], [21], [15], [21], [10], [10], [15], [9], [21], [9], [15], [15], [10], [16]], [[17], [22], [5], [6], [7], [17], [13], [16], [9], [13], [19], [20], [6], [10], [24], [24], [6], [8], [7], [14], [9], [11], [11], [20], [20], [22], [13], [6], [9], [20], [9], [9], [16], [18], [17], [8], [12], [14], [18], [23], [11], [14], [19], [17], [21], [23], [20], [22], [12], [19]], [[25], [13], [9], [21], [10], [15], [15], [20], [6], [21], [17], [11], [6], [8], [14], [23], [11], [22], [14], [18], [20], [17], [16], [23], [16], [11], [7], [23], [8], [21], [6], [6], [5], [22], [12], [21], [18], [18], [10], [21], [8], [23], [23], [15], [20], [8], [24], [20], [7], [12]], [[24], [11], [12], [12], [7], [22], [18], [14], [17], [16], [10], [13], [13], [12], [5], [15], [15], [25], [6], [13], [24], [6], [19], [22], [18], [6], [8], [22], [20], [15], [11], [10], [10], [22], [14], [18], [24], [16], [14], [8], [15], [16], [15], [9], [7], [6], [5], [12], [17], [18]], [[18], [21], [24], [15], [15], [16], [6], [6], [8], [16], [10], [16], [19], [23], [24], [24], [11], [7], [12], [6], [8], [15], [16], [12], [25], [16], [18], [12], [10], [9], [23], [6], [19], [16], [24], [17], [12], [15], [12], [10], [16], [11], [11], [7], [17], [24], [21], [20], [22], [18]], [[8], [20], [16], [19], [16], [18], [24], [10], [20], [19], [17], [19], [13], [18], [8], [21], [8], [15], [12], [14], [6], [20], [15], [13], [22], [12], [17], [15], [21], [23], [8], [22], [17], [7], [14], [24], [22], [22], [19], [7], [19], [17], [17], [14], [8], [17], [15], [21], [14], [8]], [[12], [18], [16], [18], [7], [18], [8], [16], [18], [11], [15], [16], [18], [9], [20], [22], [12], [23], [16], [9], [22], [16], [24], [19], [6], [23], [17], [15], [21], [23], [15], [24], [7], [15], [11], [23], [19], [14], [13], [8], [23], [23], [22], [8], [15], [11], [11], [18], [18], [11]], [[21], [21], [23], [13], [11], [20], [7], [10], [20], [10], [18], [12], [17], [25], [7], [20], [19], [12], [18], [18], [11], [22], [24], [19], [10], [17], [11], [19], [20], [18], [15], [11], [19], [20], [14], [5], [16], [18], [9], [14], [24], [8], [12], [15], [19], [7], [19], [10], [25], [20]], [[12], [18], [16], [10], [19], [19], [16], [8], [13], [24], [8], [19], [6], [8], [11], [23], [10], [11], [22], [16], [14], [17], [9], [17], [22], [9], [12], [7], [23], [10], [5], [24], [6], [18], [17], [18], [20], [6], [16], [6], [10], [5], [23], [10], [19], [8], [7], [13], [22], [6]]];
Q = [[69], [69], [68], [70], [72], [60], [55], [58], [61], [57]];
